c RoundingSat 2
c branch HEAD
c commit c548e10
c #variables 32 #constraints 291
c #Conflicts:       1000 | #Constraints:       1290
c #Conflicts:       2000 | #Constraints:       2290
c INPROCESSING
c GARBAGE COLLECT
c cpu time 0.045733 s
c deterministic time 3961159 3.96e+06
c optimization time 8e-06 s
c total solve time 0.044967 s
c core-guided solve time 0 s
c propagation time 0.026901 s
c conflict analysis time 0.013868 s
c propagations 33750
c resolve steps 11949
c decisions 3948
c conflicts 2997
c restarts 14
c inprocessing phases 1
c input clauses 290
c input cardinalities 1
c input general constraints 0
c input average constraint length 9.62
c input average constraint degree 1.07
c learned clauses 1870
c learned cardinalities 351
c learned general constraints 776
c learned average constraint length 12.32
c learned average constraint degree 3.88
c watched constraints 325
c counting constraints 451
c gcd simplifications 58
c detected cardinalities 88
c weakened non-implied lits 17021
c weakened non-implying lits 26
c original variables 32
c clausal propagations 7976
c cardinality propagations 12586
c watched propagations 803
c counting propagations 7912
c watch lookups 1347988
c watch backjump lookups 765570
c watch checks 1349700
c propagation checks 247844
c constraint additions 171663
c trail pops 40695
c formula constraints 291
c learned constraints 2997
c bound constraints 0
c core-guided constraints 0
c encountered formula constraints 6151
c encountered learned constraints 8795
c encountered bound constraints 0
c encountered core-guided constraints 0
c LP total time 0 s
c LP solve time 0 s
c LP constraints added 0
c LP constraints removed 0
c LP pivots internal 0
c LP pivots root 0
c LP calls 0
c LP optimalities 0
c LP no pivot count 0
c LP infeasibilities 0
c LP valid Farkas constraints 0
c LP learned Farkas constraints 0
c LP basis resets 0
c LP cycling count 0
c LP singular count 0
c LP no primal count 0
c LP no farkas count 0
c LP other issue count 0
c LP Gomory cuts 0
c LP learned cuts 0
c LP deleted cuts 0
c LP encountered Gomory constraints 0
c LP encountered Farkas constraints 0
c LP encountered learned Farkas constraints 0
c CG auxiliary variables introduced 0
c CG solutions found 0
c CG cores constructed 0
c CG core cardinality constraints returned 0
c CG unit cores 0
c CG single cores 0
c CG blocks removed during cardinality reduction 0
c CG first core best 0
c CG decision core best 0
c CG core reduction tie 0
c CG core degree average 0.00
c CG core slack average 0.00
s SATISFIABLE
v -x1 -x2 -x3 x4 x5 x6 -x7 -x8 x9 -x10 -x11 -x12 -x13 x14 -x15 -x16 -x17 x18 -x19 x20 -x21 x22 -x23 -x24 -x25 x26 -x27 -x28 -x29 -x30 -x31 x32
